GeneratedTests/Random_6/Random_6_16.tsp
NAME: Random_6_16
TYPE: TSP
DIMENSION: 6
EDGE_WEIGHT_TYPE: EUC_2D
NODE_COORD_SECTION
1 5.950207 8.291817
2 7.794049 10.936976
3 8.412488 10.155701
4 11.052574 2.3932407
5 0.5005764 7.990364
6 2.8783064 4.371908
EOF
