GeneratedTests/Random_6/Random_6_16.txt
NAME: Random_6_16
TYPE: TSP
DIMENSION: 6
EDGE_WEIGHT_TYPE: EUC_2D
NODE_COORD_SECTION
1 8.097618 7.430753
2 9.982284 3.681571
3 11.714195 2.489914
4 16.635893 8.931207
5 11.90544 16.473925
6 10.899906 12.869644
EOF
